50
750
584
575
572
571
567
567
541
536
534
529
529
513
502
500
493
482
479
478
475
452
443
424
423
413
405
337
336
334
327
326
322
310
307
304
280
277
275
275
272
241
232
224
219
208
197
196
193
189
181
175
